job_count = 30 ;
duration = [|25, 4, 19, 6|21, 28, 14, 7|23, 27, 6, 9|24, 7, 7, 4|19, 20, 2, 3|38, 28, 5, 4|23, 11, 5, 8|9, 4, 10, 5|37, 14, 19, 6|11, 25, 17, 6|35, 11, 6, 2|13, 26, 4, 5|16, 29, 5, 5|29, 9, 18, 4|34, 20, 2, 4|39, 8, 13, 3|24, 18, 5, 3|22, 24, 4, 4|11, 27, 19, 6|30, 9, 9, 6|14, 27, 15, 6|27, 25, 13, 2|23, 27, 15, 6|17, 5, 9, 6|14, 29, 19, 5|21, 20, 10, 3|16, 29, 15, 3|13, 19, 3, 2|18, 17, 2, 9|4, 23, 16, 8|] ;
machine_count = 4 ;
cost = [|11, 28, 44, 59|10, 30, 40, 48|10, 39, 55, 47|14, 20, 55, 45|14, 24, 51, 67|14, 20, 44, 71|19, 22, 47, 66|14, 20, 57, 66|18, 23, 53, 74|16, 20, 52, 66|19, 23, 54, 52|13, 37, 49, 64|16, 31, 43, 60|15, 20, 53, 46|11, 30, 49, 74|12, 31, 34, 77|19, 30, 39, 44|18, 27, 49, 72|12, 31, 35, 57|17, 23, 33, 45|16, 39, 50, 48|17, 28, 52, 65|12, 26, 42, 62|17, 32, 30, 55|15, 30, 50, 79|17, 30, 31, 76|18, 23, 59, 51|13, 39, 46, 45|14, 29, 41, 52|13, 31, 55, 49|] ;
deadline = [62, 62, 62, 62, 62, 62, 62, 62, 62, 62, 62, 62, 62, 62, 62, 62, 62, 62, 62, 62, 62, 62, 62, 62, 62, 62, 62, 62, 62, 62] ;
release = [0, 0, 0, 0, 0, 0, 0, 0, 0, 0, 0, 0, 0, 0, 0, 0, 0, 0, 0, 0, 0, 0, 0, 0, 0, 0, 0, 0, 0, 0] ;
resource = [|1, 1, 1, 1|5, 5, 5, 5|2, 2, 2, 2|7, 7, 7, 7|3, 3, 3, 3|9, 9, 9, 9|8, 8, 8, 8|8, 8, 8, 8|9, 9, 9, 9|1, 1, 1, 1|5, 5, 5, 5|1, 1, 1, 1|9, 9, 9, 9|6, 6, 6, 6|6, 6, 6, 6|3, 3, 3, 3|7, 7, 7, 7|6, 6, 6, 6|6, 6, 6, 6|5, 5, 5, 5|5, 5, 5, 5|9, 9, 9, 9|2, 2, 2, 2|4, 4, 4, 4|2, 2, 2, 2|5, 5, 5, 5|4, 4, 4, 4|5, 5, 5, 5|9, 9, 9, 9|5, 5, 5, 5|] ;
capacities = [10, 10, 10, 10] ;
